468896
59,66,23,89,14,36,11,41,96,60,43,95,71,87,10,24,103,61,104,49,32,40,73,79,1,93,12,99,70,3,101,67,105,33,85,69,64,81,19,52,50,30,29,97,34,57,80,22,77,72,98,55,5,20,56,86,26,28,58,9,21,2,94,102,13,63,15,100,45,17,8,27,68,91,35,84,62,54,37,82,7,48,106,51,53,78,38,74,47,16,88,6,76,42,31,92,90,46,65,83,4,75,18,39,25,44